269,107
334,229
533,258
644,169
681,166
533,258
639,140
681,136
894,298
1095,471
368,507
366,635
427,660
417,770
787,512
736,577
885,806
415,599
368,507
504,378
351,406
334,229
351,406
504,378
531,406
681,466
921,406
1184,327
998,-30
542,-21
945,42
977,110
998,-30
681,136
921,406
802,494
795,443
681,526
681,676
593,527
681,466
871,596
802,494
765,490
415,599
417,770
